Assets/LKHProbs~/skull.1.tsp
NAME : GeneratedProblem
COMMENT : SVGCrosshatch
TYPE : TSP
DIMENSION : 20
EDGE_WEIGHT_TYPE : EUC_2D
NODE_COORD_SECTION
1 9500 5900
2 9600 5700
3 9600 5800
4 9600 5900
5 9600 6000
6 9700 5500
7 9700 5600
8 9700 5700
9 9700 5800
10 9700 5900
11 9700 6000
12 10100 4700
13 10300 4900
14 10300 5000
15 10400 4900
16 10400 5000
17 10500 4900
18 10500 5000
19 10600 4900
20 10600 5000
EOF
