Assets/LKHProbs~/skull.1.out.txt
NAME : GeneratedProblem.3881.tour
COMMENT : Length = 3881
COMMENT : Found by LKH [Keld Helsgaun] Sun Nov 25 13:17:31 2018
TYPE : TOUR
DIMENSION : 20
TOUR_SECTION
1
4
3
2
7
6
12
13
15
17
19
20
18
16
14
8
9
10
11
5
-1
EOF
